24
695093 1319972
430667 804470
233583 487111
832832 1636416
422539 915637
614321 1334476
898576 1703095
371233 727928
324029 588848
958551 1974348
381955 818432
519075 1012735
94236 181004
835863 1826340
352292 736446
983000 2070580
286126 597255
924119 1765740
679730 1374118
229377 467036
152007 310529
794048 1614819
566176 1157316
729710 1370965
6654569